p edge 218 208
e 1 2
e 1 3
e 1 4
e 1 5
e 1 6
e 1 7
e 1 8
e 1 9
e 1 10
e 1 11
e 1 12
e 1 13
e 1 14
e 1 15
e 1 16
e 1 17
e 1 18
e 1 19
e 1 20
e 1 21
e 22 23
e 22 24
e 22 25
e 22 26
e 22 27
e 22 28
e 22 29
e 22 30
e 22 31
e 22 32
e 22 33
e 22 34
e 22 35
e 22 36
e 22 37
e 22 38
e 22 39
e 22 40
e 22 41
e 42 43
e 42 44
e 42 45
e 42 46
e 42 47
e 42 48
e 42 49
e 42 50
e 42 51
e 42 52
e 42 53
e 42 54
e 42 55
e 42 56
e 42 57
e 42 58
e 42 59
e 42 60
e 61 62
e 61 63
e 61 64
e 61 65
e 61 66
e 61 67
e 61 68
e 61 69
e 61 70
e 61 71
e 61 72
e 61 73
e 61 74
e 61 75
e 61 76
e 61 77
e 61 78
e 61 79
e 61 80
e 61 81
e 61 82
e 61 83
e 61 84
e 61 85
e 61 86
e 61 87
e 61 88
e 89 90
e 89 91
e 89 92
e 89 93
e 89 94
e 89 95
e 89 96
e 89 97
e 89 98
e 89 99
e 89 100
e 101 102
e 101 103
e 101 104
e 101 105
e 101 106
e 101 107
e 101 108
e 101 109
e 101 110
e 101 111
e 101 112
e 101 113
e 101 114
e 101 115
e 101 116
e 101 117
e 101 118
e 101 119
e 101 120
e 101 121
e 101 122
e 101 123
e 101 124
e 101 125
e 126 127
e 126 128
e 126 129
e 126 130
e 126 131
e 126 132
e 126 133
e 126 134
e 126 135
e 126 136
e 126 137
e 126 138
e 126 139
e 126 140
e 126 141
e 126 142
e 126 143
e 126 144
e 126 145
e 126 146
e 126 147
e 126 148
e 126 149
e 150 151
e 150 152
e 150 153
e 150 154
e 150 155
e 150 156
e 150 157
e 150 158
e 150 159
e 150 160
e 150 161
e 150 162
e 150 163
e 150 164
e 150 165
e 150 166
e 150 167
e 150 168
e 150 169
e 150 170
e 150 171
e 150 172
e 173 174
e 173 175
e 173 176
e 173 177
e 173 178
e 173 179
e 173 180
e 173 181
e 173 182
e 173 183
e 173 184
e 173 185
e 173 186
e 173 187
e 173 188
e 173 189
e 173 190
e 173 191
e 173 192
e 173 193
e 173 194
e 173 195
e 196 197
e 196 198
e 196 199
e 196 200
e 196 201
e 196 202
e 196 203
e 196 204
e 196 205
e 196 206
e 196 207
e 196 208
e 196 209
e 196 210
e 196 211
e 196 212
e 196 213
e 196 214
e 196 215
e 196 216
e 196 217
e 196 218
